problems/csplib-prob024/Langford-models/compact/O2/lingeling/model-langford_2_8-solution000001.eprime-solution
language ESSENCE' 1.0

letting seq_Function1D be [4, 2, 7, 5, 2, 4, 8, 6, 3, 5, 7, 1, 3, 1, 6, 8; int(1..16)]
