problems/csplib-prob024/Langford-models/compact/O2/lingeling/model-langford_2_8-solution000001.solution
language Essence 1.3

letting seq be
        function(1 --> 4, 2 --> 2, 3 --> 7, 4 --> 5, 5 --> 2, 6 --> 4, 7 --> 8, 8 --> 6, 9 --> 3, 10 --> 5, 11 --> 7,
                 12 --> 1, 13 --> 3, 14 --> 1, 15 --> 6, 16 --> 8)
